nNurses = 69;
nHours = 34;
minHours = 8;
maxHours = 14;
maxConsec = 14;
maxPresence = 30;
demand = [15, 20, 25, 29, 28, 29, 24, 19, 18, 18, 18, 14, 9, 8, 12, 14, 11, 8, 12, 10, 6, 9, 5, 7, 6, 7, 8, 10, 9, 12, 9, 13, 17, 12];
